; benchmark generated from python API
(set-info :status unknown)
(declare-datatypes ((RealState 0)) (((RMk1 (rval1 Real)) (RMk2 (rval2 Real)))))
 (assert
 (forall ((|v11:0| Real) )(exists ((|v10:1_st| RealState) (val!3204 Real) )(forall ((|v9:2| Real) )(exists ((|v8:3_st| RealState) (val!3205 Real) )(forall ((|v7:4| Real) )(exists ((|v6:5_st| RealState) (val!3206 Real) )(forall ((|v5:6| Real) )(exists ((|v4:7_st| RealState) (val!3207 Real) )(forall ((|v3:8| Real) )(exists ((|v2:9_st| RealState) (val!3208 Real) )(forall ((|v1:10| Real) )(exists ((|v0:11_st| RealState) (val!3209 Real) )(let ((?x608 (rval2 |v0:11_st|)))
 (let ((?x3034 (* 3.0 ?x608)))
 (let ((?x468 (* 0.0 ?x608)))
 (let ((?x2102 (+ (+ (+ (* 2.0 (rval2 |v8:3_st|)) (* 16.0 (rval2 |v6:5_st|))) ?x468) ?x3034)))
 (let ((?x2846 (- 18.0)))
 (let ((?x1591 (+ (+ (* (- 15.0) |v1:10|) (* (- 20.0) |v9:2|)) (* 19.0 (rval2 |v6:5_st|)))))
 (let (($x1919 (and (<= (+ ?x1591 (* (- 20.0) (rval2 |v4:7_st|))) ?x2846) (<= ?x2102 14.0))))
 (let ((?x1908 (- 9.0)))
 (let ((?x1525 (- 10.0)))
 (let ((?x854 (* ?x1525 |v7:4|)))
 (let ((?x1667 (+ (+ (* 0.0 |v5:6|) (* 20.0 (rval2 |v2:9_st|))) (* (- 14.0) (rval2 |v4:7_st|)))))
 (let ((?x1236 (- 11.0)))
 (let ((?x2945 (+ (+ (* 11.0 |v3:8|) (* (- 16.0) (rval2 |v6:5_st|))) (* (- 15.0) |v3:8|))))
 (let (($x3052 (and (and (<= (+ ?x2945 (* 15.0 |v11:0|)) ?x1236) (<= (+ ?x1667 ?x854) ?x1908)) $x1919)))
 (let ((?x2412 (- 3.0)))
 (let ((?x1663 (rval2 |v2:9_st|)))
 (let ((?x1968 (- 17.0)))
 (let ((?x2491 (* ?x1968 ?x1663)))
 (let (($x1388 (<= (+ (+ (+ (* 2.0 |v11:0|) (* 0.0 |v9:2|)) (* 6.0 |v11:0|)) ?x2491) ?x2412)))
 (let ((?x1953 (- 14.0)))
 (let ((?x2564 (* ?x1953 |v7:4|)))
 (let (($x644 (<= (+ (+ (+ (* 0.0 |v5:6|) (* 11.0 ?x608)) (* ?x2846 ?x608)) ?x2564) 18.0)))
 (let ((?x109 (- 2.0)))
 (let ((?x3084 (* ?x109 |v11:0|)))
 (let ((?x772 (+ (+ (+ (* 13.0 |v5:6|) (* (- 12.0) (rval2 |v10:1_st|))) ?x3084) (* (- 13.0) (rval2 |v6:5_st|)))))
 (let ((?x2792 (- 6.0)))
 (let ((?x2548 (* 4.0 |v3:8|)))
 (let ((?x965 (+ (+ (+ (* ?x2412 (rval2 |v6:5_st|)) (* 0.0 |v9:2|)) (* 5.0 |v1:10|)) ?x2548)))
 (let ((?x2171 (- 7.0)))
 (let ((?x1060 (* 5.0 |v5:6|)))
 (let ((?x2667 (+ (+ (+ (* ?x2412 (rval2 |v8:3_st|)) (* 18.0 |v9:2|)) (* ?x2171 (rval2 |v4:7_st|))) ?x1060)))
 (let ((?x575 (+ (+ (* 18.0 (rval2 |v10:1_st|)) (* (- 12.0) (rval2 |v10:1_st|))) (* (- 19.0) ?x1663))))
 (let ((?x2646 (* 3.0 |v5:6|)))
 (let ((?x1759 (+ (+ (* (- 5.0) |v3:8|) (* 3.0 |v7:4|)) (* (- 12.0) (rval2 |v6:5_st|)))))
 (let (($x94 (<= (+ (+ (+ (* 20.0 |v11:0|) (* 14.0 |v11:0|)) ?x2491) (* 12.0 |v11:0|)) 6.0)))
 (let ((?x2685 (- 15.0)))
 (let ((?x154 (+ (+ (+ (* (- 19.0) (rval2 |v8:3_st|)) (* 6.0 (rval2 |v4:7_st|))) |v11:0|) (* ?x1953 (rval2 |v8:3_st|)))))
 (let (($x356 (or (or (<= ?x154 ?x2685) $x94) (or (<= (+ ?x1759 ?x2646) 12.0) (<= (+ ?x575 |v7:4|) 2.0)))))
 (let (($x3185 (or $x356 (or (and (<= ?x2667 ?x2171) (<= ?x965 ?x2792)) (or (<= ?x772 ?x1236) $x644)))))
 (let ((?x2434 (- 12.0)))
 (let ((?x2974 (* ?x2434 |v1:10|)))
 (let ((?x1191 (+ (+ (+ (* 18.0 ?x608) (* 7.0 (rval2 |v10:1_st|))) (* (- 20.0) ?x608)) ?x2974)))
 (let ((?x3121 (* 20.0 |v9:2|)))
 (let ((?x2209 (+ (+ (+ (* (- 5.0) |v3:8|) (* ?x1236 |v11:0|)) (* (- 13.0) |v11:0|)) ?x3121)))
 (let ((?x944 (* ?x109 |v7:4|)))
 (let ((?x2120 (+ (+ (* (- 1.0) ?x608) (* 5.0 (rval2 |v4:7_st|))) (* (- 5.0) |v5:6|))))
 (let ((?x1614 (+ (+ (+ (* ?x2171 |v9:2|) (rval2 |v10:1_st|)) (* ?x1953 |v1:10|)) (* 13.0 |v9:2|))))
 (let (($x2253 (and (or (<= ?x1614 ?x2792) (<= (+ ?x2120 ?x944) 4.0)) (or (<= ?x2209 9.0) (<= ?x1191 ?x2434)))))
 (let ((?x3115 (* 17.0 |v1:10|)))
 (let ((?x169 (+ (+ (+ (* ?x1525 |v11:0|) (* 0.0 (rval2 |v8:3_st|))) (* 3.0 |v3:8|)) ?x3115)))
 (let ((?x259 (* 5.0 ?x608)))
 (let ((?x2371 (+ (+ (* 0.0 (rval2 |v4:7_st|)) (* 8.0 |v5:6|)) (* ?x1953 (rval2 |v10:1_st|)))))
 (let ((?x2453 (+ (+ (+ (* (- 16.0) |v11:0|) (* ?x1236 |v3:8|)) (rval2 |v4:7_st|)) (* (- 5.0) ?x608))))
 (let ((?x488 (- 20.0)))
 (let ((?x1176 (- 13.0)))
 (let ((?x1163 (* ?x1176 |v7:4|)))
 (let ((?x705 (+ (+ (+ (* ?x488 (rval2 |v8:3_st|)) (* 20.0 (rval2 |v8:3_st|))) ?x1163) (* (- 8.0) (rval2 |v6:5_st|)))))
 (let (($x2623 (or (or (<= ?x705 ?x488) (<= ?x2453 3.0)) (or (<= (+ ?x2371 ?x259) 3.0) (<= ?x169 2.0)))))
 (let ((?x2701 (- 8.0)))
 (let ((?x294 (+ (+ (+ (* ?x2412 |v9:2|) (* (- 16.0) ?x608)) (* 0.0 (rval2 |v6:5_st|))) (* (- 4.0) |v5:6|))))
 (let (($x640 (<= (+ (+ (+ ?x3084 (* 5.0 |v1:10|)) (* ?x2701 |v1:10|)) (* ?x1525 |v1:10|)) 4.0)))
 (let ((?x2803 (rval2 |v8:3_st|)))
 (let ((?x171 (* 15.0 ?x2803)))
 (let ((?x2902 (+ (+ (+ (* (- 4.0) (rval2 |v10:1_st|)) (* 3.0 ?x1663)) ?x171) (* ?x1908 |v11:0|))))
 (let (($x3189 (<= (+ (+ (+ (* 4.0 (rval2 |v10:1_st|)) (* ?x2701 ?x2803)) ?x2803) ?x468) 2.0)))
 (let ((?x467 (+ (+ (+ (* (- 16.0) |v11:0|) (* 6.0 |v7:4|)) (* ?x2792 |v7:4|)) (* ?x2701 |v7:4|))))
 (let ((?x1192 (+ (+ (+ (* 5.0 |v3:8|) |v1:10|) (* 0.0 (rval2 |v10:1_st|))) (* ?x1968 ?x2803))))
 (let ((?x1500 (+ (+ (+ (* ?x2434 |v3:8|) (* 0.0 |v7:4|)) (* ?x2685 ?x2803)) (* ?x1953 (rval2 |v6:5_st|)))))
 (let ((?x1418 (* ?x1176 |v11:0|)))
 (let (($x1070 (<= (+ (+ (+ (* ?x2434 |v11:0|) (* ?x2846 |v5:6|)) (* 18.0 |v5:6|)) ?x1418) ?x2701)))
 (let (($x1143 (and (and (and $x1070 (<= ?x1500 ?x1236)) (or (<= ?x1192 ?x1908) (<= ?x467 ?x488))) (or (or $x3189 (<= ?x2902 ?x488)) (or $x640 (<= ?x294 ?x2701))))))
 (let ((?x721 (- 5.0)))
 (let ((?x2169 (+ (+ (+ (* 14.0 ?x1663) (* ?x2412 |v3:8|)) (* ?x1953 |v11:0|)) (* ?x1176 |v1:10|))))
 (let (($x93 (<= (+ (+ (+ (* (- 19.0) ?x608) (* ?x109 |v3:8|)) ?x2974) (* ?x488 |v7:4|)) ?x721)))
 (let ((?x1991 (* 17.0 |v3:8|)))
 (let ((?x1108 (+ (+ (* 7.0 (rval2 |v4:7_st|)) (* 20.0 (rval2 |v6:5_st|))) (* 11.0 (rval2 |v6:5_st|)))))
 (let ((?x2260 (* 17.0 ?x608)))
 (let ((?x1244 (+ (+ (+ (* 3.0 (rval2 |v6:5_st|)) (* 15.0 |v9:2|)) (* 18.0 |v5:6|)) ?x2260)))
 (let ((?x1049 (* 15.0 |v9:2|)))
 (let ((?x1805 (+ (+ (+ (* 10.0 |v9:2|) (* ?x488 (rval2 |v6:5_st|))) (* 5.0 |v9:2|)) ?x1049)))
 (let (($x751 (or (or (<= ?x1805 8.0) (<= ?x1244 5.0)) (and (<= (+ ?x1108 ?x1991) 20.0) $x93))))
 (let ((?x1580 (- 16.0)))
 (let ((?x609 (* ?x1580 |v7:4|)))
 (let ((?x1175 (rval2 |v10:1_st|)))
 (let ((?x1226 (* 0.0 ?x1175)))
 (let ((?x3012 (+ (+ (+ (* 19.0 ?x608) (* (- 1.0) |v7:4|)) (* ?x488 |v5:6|)) (* ?x2846 (rval2 |v6:5_st|)))))
 (let (($x532 (and (<= ?x3012 18.0) (<= (+ (+ (+ (* 20.0 ?x1175) (* ?x1968 |v1:10|)) ?x1226) ?x609) 14.0))))
 (let (($x3078 (<= (+ (+ (+ (* ?x1525 |v11:0|) (* ?x2792 |v11:0|)) (* ?x721 |v7:4|)) ?x1418) 10.0)))
 (let ((?x2441 (* ?x488 |v7:4|)))
 (let ((?x2470 (+ (+ (+ (* (- 1.0) |v3:8|) (* (- 1.0) |v7:4|)) (* ?x2434 ?x608)) ?x2441)))
 (let ((?x2588 (- 4.0)))
 (let (($x2879 (and (<= (+ (+ (+ ?x1049 ?x1226) (* (- 19.0) |v3:8|)) (* ?x1953 |v9:2|)) ?x2588) (<= ?x2470 8.0))))
 (let (($x1791 (<= (+ (+ (+ ?x1226 (* 16.0 ?x2803)) (* 6.0 ?x2803)) (* ?x2412 |v9:2|)) ?x488)))
 (let ((?x969 (* 12.0 |v7:4|)))
 (let ((?x1517 (+ (+ (+ (* 15.0 (rval2 |v6:5_st|)) (* 7.0 ?x1663)) (* 18.0 |v11:0|)) ?x969)))
 (let ((?x147 (* 20.0 |v11:0|)))
 (let (($x1818 (<= (+ (+ (+ (* ?x1968 |v7:4|) (* ?x1176 |v5:6|)) (* 12.0 ?x2803)) ?x147) ?x2434)))
 (let ((?x2753 (+ (+ (+ (* ?x2701 |v5:6|) (* 15.0 |v5:6|)) (* 20.0 |v1:10|)) (* ?x1968 (rval2 |v4:7_st|)))))
 (let ((?x121 (* 7.0 |v3:8|)))
 (let ((?x2467 (+ (+ (+ (* 2.0 |v7:4|) (* ?x2846 ?x2803)) (* 8.0 (rval2 |v4:7_st|))) ?x121)))
 (let ((?x182 (* 5.0 |v3:8|)))
 (let ((?x1672 (+ (+ (+ (* (- 1.0) |v9:2|) (* 8.0 |v3:8|)) (* 7.0 (rval2 |v4:7_st|))) ?x182)))
 (let (($x2138 (or (or (<= ?x1672 6.0) (<= ?x2467 ?x2792)) (and (<= ?x2753 7.0) $x1818))))
 (let (($x2907 (or (or $x2138 (and (and (<= ?x1517 ?x1236) $x1791) $x2879)) (and (or $x3078 $x532) $x751))))
 (let (($x2629 (or (or $x2907 (<= ?x2169 ?x721)) (or (and $x1143 (or $x2623 $x2253)) (or $x3185 (and $x1388 $x3052))))))
 (let (($x1423 (not (= |v0:11_st| (RMk1 val!3209)))))
 (let (($x937 (not (= |v2:9_st| (RMk1 val!3208)))))
 (let (($x1277 (not (= |v4:7_st| (RMk1 val!3207)))))
 (let (($x1151 (not (= |v6:5_st| (RMk1 val!3206)))))
 (let (($x1011 (not (= |v8:3_st| (RMk1 val!3205)))))
 (let (($x439 (not (= |v10:1_st| (RMk1 val!3204)))))
 (and $x439 $x1011 $x1151 $x1277 $x937 $x1423 $x2629)))))))))))))))))))))))))))))))))))))))))))))))))))))))))))))))))))))))))))))))))))))))))))))))))))))))))))))))))
 )
 )
 )
 )
 )
 )
 )
 )
 )
 )
 )
 )
(check-sat)
